53370
53 49 1489
49 26 560
26 55 397
55 28 487
28 6 404
6 3 385
3 43 1096
43 40 1279
40 7 1176
7 37 517
37 51 590
51 13 644
13 5 723
5 35 323
35 24 296
24 20 740
20 50 763
50 38 1180
38 8 368
8 44 383
44 32 676
32 41 362
41 19 1369
19 48 897
48 17 415
17 23 619
23 21 176
21 29 516
29 22 544
22 10 117
10 39 941
39 46 214
46 36 402
36 15 679
15 16 556
16 52 739
52 45 722
45 11 436
11 25 545
25 31 299
31 27 4460
27 1 4123
1 33 7621
33 42 4807
42 2 1722
2 14 433
14 9 471
9 12 723
12 18 768
18 4 606
4 30 380
30 47 944
47 54 491
54 34 401
34 53 396
